32	0

0	2	2	4
9	1	3
6	1	5
10	1	5
8	2	6	7
8	1	8
6	1	8
4	2	9	10
9	2	12	13
3	1	11
4	2	12	13
2	1	14
5	1	14
3	2	15	17
4	1	16
1	2	18	19
5	2	18	19
9	2	20	21
8	2	20	21
8	2	22	23
9	2	22	23
3	1	24
4	1	24
5	2	25	26
5	2	28	30
3	1	27
1	2	28	30
1	1	29
2	1	31
5	1	32
1	1	32
0	0
